NAME : toy.vrp
COMMENT : toy instance>
TYPE : CVRP
DIMENSION : 7
EDGE_WEIGHT_TYPE : EUC_2D
CAPACITY : 5
NODE_COORD_SECTION
1 0 0
2 8 0
3 2 6
4 12 0
5 10 4
6 2 10
7 12 8
DEMAND_SECTION
1 0
2 2
3 1 
4 1
5 3
6 1
7 2
DEPOT_SECTION
1
-1
EOF
